bin_widths = [20, 20, 10, 10, 10, 10, 10, 10, 20, 20, 10, 10, 10, 10, 10, 10];

bin_heights = [20, 20, 30, 30, 30, 10, 10, 10, 30, 30, 20, 20, 20, 40, 40, 40];

bin_size = 16;

item_widths = [1, 2, 6, 4, 8, 2, 7, 3, 1, 2, 9, 2, 1, 5, 6, 2, 5, 1, 8, 5, 8, 9, 5, 5, 8, 8, 9, 6, 3, 4, 7, 3, 6, 8, 5, 7, 5, 7, 6, 7, 6, 2, 4, 5, 7, 2, 5, 7, 2, 2, 7, 4, 9, 2, 8, 2, 8, 2, 7, 3, 7, 7, 2, 5, 4, 9, 5, 5, 8, 5, 9, 7, 2, 8, 5, 6, 5, 8, 6, 8, 1, 3, 3, 2, 8, 6, 3, 1, 8, 2, 5, 2, 7, 5, 4, 7, 4, 6, 6, 5];

item_heights = [6, 8, 5, 9, 7, 8, 5, 1, 4, 2, 5, 1, 4, 6, 6, 6, 4, 6, 8, 3, 7, 9, 2, 3, 2, 8, 9, 4, 3, 1, 1, 3, 7, 7, 2, 5, 9, 1, 4, 6, 4, 3, 8, 9, 4, 6, 1, 5, 9, 9, 3, 1, 7, 8, 6, 2, 5, 5, 4, 6, 7, 5, 4, 6, 1, 9, 4, 4, 3, 3, 3, 6, 7, 4, 9, 1, 2, 6, 2, 2, 7, 9, 4, 7, 7, 7, 2, 1, 8, 2, 1, 5, 7, 1, 2, 3, 3, 5, 2, 9];

item_size = 100;

item_area = 2520;

